666,594
464,388
719,779
928,842
865,926
426,510
246,329
834,807
178,204
253,213
349,318
595,649
812,841
117,26
11,-79
406,393
545,498
596,528
544,608
126,134
274,194
132,157
462,383
531,454
667,614
898,894
437,500
917,955
79,-14
688,595
126,137
726,743
487,403
638,620
137,123
488,389
36,113
362,363
113,160
64,154
333,358
299,305
176,247
542,600
756,797
687,712
680,636
583,674
763,739
417,370

1380
1250
1254
1166
1182
1063
1323
1087
1377
